p cnf 222 327 
-1  2 0 
-3  2 0 
-1 -3  4 0 
-5  6 0 
-7  6 0 
-5 -7  8 0 
-2  9 0 
-8  9 0 
-2 -8  10 0 
-4  11 0 
-6  11 0 
-4 -6  12 0 
-9  13 0 
-11  13 0 
-9 -11  14 0 
-12  15 0 
-10  15 0 
-12 -10  16 0 
-17  18 0 
-19  18 0 
-17 -19  20 0 
-21  22 0 
-23  22 0 
-21 -23  24 0 
-18  25 0 
-24  25 0 
-18 -24  26 0 
-20  27 0 
-22  27 0 
-20 -22  28 0 
-25  29 0 
-27  29 0 
-25 -27  30 0 
-28  31 0 
-26  31 0 
-28 -26  32 0 
-13  33 0 
-32  33 0 
-13 -32  34 0 
-14  35 0 
-31  35 0 
-14 -31  36 0 
-15  37 0 
-30  37 0 
-15 -30  38 0 
-16  39 0 
-29  39 0 
-16 -29  40 0 
-33  41 0 
-37  41 0 
-33 -37  42 0 
-35  43 0 
-39  43 0 
-35 -39  44 0 
-41  45 0 
-43  45 0 
-41 -43  46 0 
-42  47 0 
-44  47 0 
-42 -44  48 0 
-40  49 0 
-36  49 0 
-40 -36  50 0 
-38  51 0 
-34  51 0 
-38 -34  52 0 
-49  53 0 
-51  53 0 
-49 -51  54 0 
-50  55 0 
-52  55 0 
-50 -52  56 0 
-57  58 0 
-59  58 0 
-57 -59  60 0 
-61  62 0 
-63  62 0 
-61 -63  64 0 
-58  65 0 
-64  65 0 
-58 -64  66 0 
-60  67 0 
-62  67 0 
-60 -62  68 0 
-65  69 0 
-67  69 0 
-65 -67  70 0 
-68  71 0 
-66  71 0 
-68 -66  72 0 
-73  74 0 
-75  74 0 
-73 -75  76 0 
-77  78 0 
-79  78 0 
-77 -79  80 0 
-74  81 0 
-80  81 0 
-74 -80  82 0 
-76  83 0 
-78  83 0 
-76 -78  84 0 
-81  85 0 
-83  85 0 
-81 -83  86 0 
-84  87 0 
-82  87 0 
-84 -82  88 0 
-69  89 0 
-88  89 0 
-69 -88  90 0 
-70  91 0 
-87  91 0 
-70 -87  92 0 
-71  93 0 
-86  93 0 
-71 -86  94 0 
-72  95 0 
-85  95 0 
-72 -85  96 0 
-89  97 0 
-93  97 0 
-89 -93  98 0 
-91  99 0 
-95  99 0 
-91 -95  100 0 
-97  101 0 
-99  101 0 
-97 -99  102 0 
-98  103 0 
-100  103 0 
-98 -100  104 0 
-96  105 0 
-92  105 0 
-96 -92  106 0 
-94  107 0 
-90  107 0 
-94 -90  108 0 
-105  109 0 
-107  109 0 
-105 -107  110 0 
-106  111 0 
-108  111 0 
-106 -108  112 0 
-45 -112 0 
-46 -111 0 
-47 -110 0 
-48 -109 0 
-53 -104 0 
-54 -103 0 
-55 -102 0 
-56 -101 0 
 1  3 -113 0 
 1 -114 0 
 3 -114 0 
 5  7 -115 0 
 5 -116 0 
 7 -116 0 
 113  116 -117 0 
 113 -118 0 
 116 -118 0 
 114  115 -119 0 
 114 -120 0 
 115 -120 0 
 117  119 -121 0 
 117 -122 0 
 119 -122 0 
 120  118 -123 0 
 120 -124 0 
 118 -124 0 
 17  19 -125 0 
 17 -126 0 
 19 -126 0 
 21  23 -127 0 
 21 -128 0 
 23 -128 0 
 125  128 -129 0 
 125 -130 0 
 128 -130 0 
 126  127 -131 0 
 126 -132 0 
 127 -132 0 
 129  131 -133 0 
 129 -134 0 
 131 -134 0 
 132  130 -135 0 
 132 -136 0 
 130 -136 0 
 121  136 -137 0 
 121 -138 0 
 136 -138 0 
 122  135 -139 0 
 122 -140 0 
 135 -140 0 
 123  134 -141 0 
 123 -142 0 
 134 -142 0 
 124  133 -143 0 
 124 -144 0 
 133 -144 0 
 137  141 -145 0 
 137 -146 0 
 141 -146 0 
 139  143 -147 0 
 139 -148 0 
 143 -148 0 
 145  147 -149 0 
 145 -150 0 
 147 -150 0 
 146  148 -151 0 
 146 -152 0 
 148 -152 0 
 144  140 -153 0 
 144 -154 0 
 140 -154 0 
 142  138 -155 0 
 142 -156 0 
 138 -156 0 
 153  155 -157 0 
 153 -158 0 
 155 -158 0 
 154  156 -159 0 
 154 -160 0 
 156 -160 0 
 57  59 -161 0 
 57 -162 0 
 59 -162 0 
 61  63 -163 0 
 61 -164 0 
 63 -164 0 
 161  164 -165 0 
 161 -166 0 
 164 -166 0 
 162  163 -167 0 
 162 -168 0 
 163 -168 0 
 165  167 -169 0 
 165 -170 0 
 167 -170 0 
 168  166 -171 0 
 168 -172 0 
 166 -172 0 
 73  75 -173 0 
 73 -174 0 
 75 -174 0 
 77  79 -175 0 
 77 -176 0 
 79 -176 0 
 173  176 -177 0 
 173 -178 0 
 176 -178 0 
 174  175 -179 0 
 174 -180 0 
 175 -180 0 
 177  179 -181 0 
 177 -182 0 
 179 -182 0 
 180  178 -183 0 
 180 -184 0 
 178 -184 0 
 169  184 -185 0 
 169 -186 0 
 184 -186 0 
 170  183 -187 0 
 170 -188 0 
 183 -188 0 
 171  182 -189 0 
 171 -190 0 
 182 -190 0 
 172  181 -191 0 
 172 -192 0 
 181 -192 0 
 185  189 -193 0 
 185 -194 0 
 189 -194 0 
 187  191 -195 0 
 187 -196 0 
 191 -196 0 
 193  195 -197 0 
 193 -198 0 
 195 -198 0 
 194  196 -199 0 
 194 -200 0 
 196 -200 0 
 192  188 -201 0 
 192 -202 0 
 188 -202 0 
 190  186 -203 0 
 190 -204 0 
 186 -204 0 
 201  203 -205 0 
 201 -206 0 
 203 -206 0 
 202  204 -207 0 
 202 -208 0 
 204 -208 0 
 149  208 0 
 149 -209 0 
 208 -209 0 
 150  207 0 
 150 -210 0 
 207 -210 0 
 151  206 0 
 151 -211 0 
 206 -211 0 
 152  205 0 
 152 -212 0 
 205 -212 0 
 157  200 0 
 157 -213 0 
 200 -213 0 
 158  199 0 
 158 -214 0 
 199 -214 0 
 159  198 0 
 159 -215 0 
 198 -215 0 
 160  197 0 
 160 -216 0 
 197 -216 0 
 216  212 -217 0 
 215  211 -218 0 
 214  210 -219 0 
 213  209 -220 0 
 217  219 -221 0 
 218  220 -222 0 
 221  222 0 
